\ This file has been generated by DOcplex
\ ENCODING=ISO-8859-1
\Problem name: random_problem.lp

Minimize
 obj: - 316 x0 - 158 x1 + 536 x2 + 268 x3 - 124 x4 - 62 x5 - 872 x6 - 436 x7
      + 2144 x8 + 1072 x9 + 386 x10 + 193 x11 + [ 41296 x0^2 + 41296 x0*x1
      + 7072 x0*x2 + 3536 x0*x3 + 2752 x0*x4 + 1376 x0*x5 - 2496 x0*x6
      - 1248 x0*x7 + 5920 x0*x8 + 2960 x0*x9 - 6368 x0*x10 - 3184 x0*x11
      + 10324 x1^2 + 3536 x1*x2 + 1768 x1*x3 + 1376 x1*x4 + 688 x1*x5
      - 1248 x1*x6 - 624 x1*x7 + 2960 x1*x8 + 1480 x1*x9 - 3184 x1*x10
      - 1592 x1*x11 + 3808 x2^2 + 3808 x2*x3 + 1888 x2*x4 + 944 x2*x5
      + 5440 x2*x6 + 2720 x2*x7 + 2656 x2*x8 + 1328 x2*x9 + 2496 x2*x10
      + 1248 x2*x11 + 952 x3^2 + 944 x3*x4 + 472 x3*x5 + 2720 x3*x6 + 1360 x3*x7
      + 1328 x3*x8 + 664 x3*x9 + 1248 x3*x10 + 624 x3*x11 + 880 x4^2 + 880 x4*x5
      + 2592 x4*x6 + 1296 x4*x7 + 1632 x4*x8 + 816 x4*x9 + 736 x4*x10
      + 368 x4*x11 + 220 x5^2 + 1296 x5*x6 + 648 x5*x7 + 816 x5*x8 + 408 x5*x9
      + 368 x5*x10 + 184 x5*x11 + 13344 x6^2 + 13344 x6*x7 - 1600 x6*x8
      - 800 x6*x9 - 4480 x6*x10 - 2240 x6*x11 + 3336 x7^2 - 800 x7*x8
      - 400 x7*x9 - 2240 x7*x10 - 1120 x7*x11 + 6928 x8^2 + 6928 x8*x9
      + 2016 x8*x10 + 1008 x8*x11 + 1732 x9^2 + 1008 x9*x10 + 504 x9*x11
      + 6736 x10^2 + 6736 x10*x11 + 1684 x11^2 ]/2
Subject To
 c0: 2 x0 + x1 + 2 x2 + x3 + 2 x4 + x5 + 2 x6 + x7 + 2 x8 + x9 + 2 x10 + x11 = 
     3

Bounds
 0 <= x0 <= 1
 0 <= x1 <= 1
 0 <= x2 <= 1
 0 <= x3 <= 1
 0 <= x4 <= 1
 0 <= x5 <= 1
 0 <= x6 <= 1
 0 <= x7 <= 1
 0 <= x8 <= 1
 0 <= x9 <= 1
 0 <= x10 <= 1
 0 <= x11 <= 1

Binaries
 x0 x1 x2 x3 x4 x5 x6 x7 x8 x9 x10 x11
End
